###############################################################################
# Gupta, R.K.;Whang Chin Myung (2007)
# Journal of Physics: Condensed Matter 19, 196209-1-196209-15
# Structural study of a sol-gel derived novel solid oxide fuel cell \
# perovskite: (La1-x Srx) (Cr0.85 Fe0.05 Co0.05 Ni0.05) O3-d
# 
# CIF by ICSD-for-WWW,  Copyright 2003 FIZ-Karlsruhe & A.W.Hewat (hewat@ill.fr)
# NOT TO BE PUBLISHED IN ANY FORM. See http://icsd.ill.fr/icsd/conditions.html
###############################################################################

data_160568-ICSD
_database_code_ICSD                160568
_audit_creation_date               2008-08-01
_chemical_name_systematic
'Lanthanum strontium chromium iron cobalt nickel oxide (0.9/0.1/0.85/0.05/0.05/0.05/3)'
_chemical_formula_structural       
'(La0.9 Sr0.1) (Cr0.85 Fe0.05 Co0.05 Ni0.05) O3'
_chemical_formula_sum              
'Co0.05 Cr0.85 Fe0.05 La0.9 Ni0.05 O3 Sr0.1'
_publ_section_title                
'Co0.05 Cr0.85 Fe0.05 La0.9 Ni0.05 O3 Sr0.1'
loop_
_citation_id
_citation_journal_abbrev
_citation_year
_citation_journal_volume
_citation_page_first
_citation_page_last
_citation_journal_id_ASTM
primary 'Journal of Physics: Condensed Matter' 2007 19 196209-1 196209-15 JCOMEL
loop_
_publ_author_name
Gupta, R.K.;Whang Chin Myung
_cell_length_a                     5.4616(7)
_cell_length_b                     7.767(1)
_cell_length_c                     5.5045(6)
_cell_angle_alpha                  90.
_cell_angle_beta                   90.
_cell_angle_gamma                  90.
_cell_volume                       233.5007
_cell_formula_units_Z              4.000
_symmetry_space_group_name_H-M     'P n m a'
_symmetry_Int_Tables_number        62
_refine_ls_R_factor_all            0.1261
loop_
_symmetry_equiv_pos_site_id
_symmetry_equiv_pos_as_xyz
   1   'x+1/2, y, -z+1/2'
   2   'x, -y+1/2, z'
   3   '-x+1/2, y+1/2, z+1/2'
   4   '-x, -y, -z'
   5   '-x+1/2, -y, z+1/2'
   6   '-x, y+1/2, -z'
   7   'x+1/2, -y+1/2, -z+1/2'
   8   'x, y, z'
loop_
_atom_type_symbol
_atom_type_oxidation_number
La3+     3.
Sr2+     2.
Cr3+     3.1
Fe3+     3.1
Co3+     3.1
Ni3+     3.1
O2-     -2.
loop_
_atom_site_label
_atom_site_type_symbol
_atom_site_symmetry_multiplicity
_atom_site_Wyckoff_symbol
_atom_site_fract_x
_atom_site_fract_y
_atom_site_fract_z
_atom_site_B_iso_or_equiv
_atom_site_occupancy
La1 La3+ 4 c 0.0130(5) 0.250 0.003(3) 3.94(7) 0.9
Sr1 Sr2+ 4 c 0.0130(5) 0.250 0.003(3) 3.94(7) 0.1
Cr1 Cr3+ 4 b 0 0 0.5 2.9(1) 0.85
Fe1 Fe3+ 4 b 0 0 0.5 2.9(1) 0.05
Co1 Co3+ 4 b 0 0 0.5 2.9(1) 0.05
Ni1 Ni3+ 4 b 0 0 0.5 2.9(1) 0.05
O1 O2- 4 c 0.496(2) 0.250 0.02(1) 0.2(1) 1.
O2 O2- 8 d 0.25(1) 0.550(5) 0.26(1) 2.4(2) 1.
#End of data_160568-ICSD

